10
10
447585
0
0
39 187 41 12 135 26 56 58 32 47
1
0
57 11 66 183 93 49 21 12 58 0
2
0
18 22 34 9 120 216 57 33 4 61
3
0
6 35 68 66 53 57 24 134 6 58
4
0
32 8 4 84 155 18 13 57 30 77
5
0
7 98 37 103 6 39 64 30 3 11
6
0
104 52 9 2 3 5 66 29 15 47
7
0
11 132 34 73 54 6 10 19 16 2
8
0
345 59 229 15 203 63 72 5 337 36
9
0
9 10 11 1 60 3 1 16 47 94
